n = 50;
C = 6449;
w = [187,163,304,494,85,403,288,55,414,108,338,295,176,102,267,354,88,277,260,94,235,364,346,408,270,261,490,258,491,63,222,140,266,351,294,450,1,112,288,236,257,110,377,290,442,451,354,201,90,29];
p = [148,205,353,520,49,417,291,47,384,89,317,301,187,147,266,330,96,307,258,135,201,376,324,414,227,244,481,296,529,45,248,92,264,400,305,430,25,123,311,239,212,110,400,335,399,479,305,211,68,19];
